certificates/rado_a9_c39_N19.cnf
c Rad2 upper bound instance: x1 + 9*x2 - x3 = 39, interval [1,19]
p cnf 19 78
1 5 7 0
-1 -5 -7 0
1 6 16 0
-1 -6 -16 0
2 5 8 0
-2 -5 -8 0
2 6 17 0
-2 -6 -17 0
3 5 9 0
-3 -5 -9 0
3 6 18 0
-3 -6 -18 0
1 4 0
-1 -4 0
4 5 10 0
-4 -5 -10 0
4 6 19 0
-4 -6 -19 0
2 4 5 0
-2 -4 -5 0
5 11 0
-5 -11 0
3 4 6 0
-3 -4 -6 0
5 6 12 0
-5 -6 -12 0
4 7 0
-4 -7 0
5 7 13 0
-5 -7 -13 0
4 5 8 0
-4 -5 -8 0
5 8 14 0
-5 -8 -14 0
4 6 9 0
-4 -6 -9 0
5 9 15 0
-5 -9 -15 0
4 7 10 0
-4 -7 -10 0
5 10 16 0
-5 -10 -16 0
4 8 11 0
-4 -8 -11 0
5 11 17 0
-5 -11 -17 0
4 9 12 0
-4 -9 -12 0
5 12 18 0
-5 -12 -18 0
1 3 13 0
-1 -3 -13 0
4 10 13 0
-4 -10 -13 0
5 13 19 0
-5 -13 -19 0
2 3 14 0
-2 -3 -14 0
4 11 14 0
-4 -11 -14 0
3 15 0
-3 -15 0
4 12 15 0
-4 -12 -15 0
3 4 16 0
-3 -4 -16 0
4 13 16 0
-4 -13 -16 0
3 5 17 0
-3 -5 -17 0
4 14 17 0
-4 -14 -17 0
4 15 18 0
-4 -15 -18 0
3 7 19 0
-3 -7 -19 0
4 16 19 0
-4 -16 -19 0
