certificates/rado_a9_c39_N19.drat
-16 -19 0
d -16 -4 -19 0
-7 -19 0
-19 0
16 0
7 0
-4 0
1 0
6 0
0
